webassembly/ejemplos_dzn/4/folder4_json_20.dzn
TERM = { '.', 'in_1', 'local_0', 's(1)', 's(0)', 'in_0'};
null = '.';
s = 4;
n = 7;
ndeps = 2;
max_registers_sz = 3;
NR = 0;
registers = [| |];
dependencies = [|'i32.store16_0', 'i32.load16_s_2', |'i32.store16_0', 'i32.load8_s_3'|];
GET_ENUM = { GET1, GET2, GET3};
SET_ENUM = { SET1, SET2, SET3};
TEE_ENUM = { TEE1, TEE2, TEE3};
N = 4;
OP = { 'i32.store16_0', 'i32.load16_s_2', 'i32.load8_s_3', 'local.get_0' };
in_ops = [2, 1, 1, 0 ];
out_ops = [0, 1, 1, 1 ];
in1 = ['in_0', 'local_0', 's(0)', '.' ];
in2 = ['in_1', '.', '.', '.' ];
in3 = ['.', '.', '.', '.' ];
out1 = ['.', 's(0)', 's(1)', 'local_0' ];
out2 = ['.', '.', '.', '.' ];
out3 = ['.', '.', '.', '.' ];
comm = [false, false, false, false ];
gas = [1, 1, 1, 1 ];
sz = [1, 1, 1, 1 ];
stor = [true, false, false, false ];
lb = [ 1, 1, 1, 1 ];
ub = [ 4, 4, 4, 4 ];
startstack = [ 'in_0', 'in_1', null, null, null, null, null ];
endstack = [ 's(1)', null, null, null, null, null, null ];
